c preprocessed version of KneserGraph_10_2, 45 vertices, 630 edges
p td 45 630
0 1
0 3
0 5
0 6
0 7
0 11
0 12
0 15
0 17
0 20
0 22
0 23
0 24
0 25
0 26
0 29
0 30
0 31
0 32
0 33
0 35
0 36
0 37
0 38
0 40
0 41
0 43
0 44
1 2
1 4
1 5
1 6
1 7
1 8
1 10
1 11
1 13
1 14
1 15
1 16
1 17
1 19
1 21
1 22
1 23
1 25
1 27
1 31
1 33
1 34
1 35
1 36
1 40
1 41
1 42
2 4
2 5
2 6
2 7
2 8
2 11
2 13
2 14
2 18
2 20
2 21
2 22
2 24
2 25
2 26
2 29
2 30
2 32
2 36
2 37
2 38
2 39
3 4
3 5
3 6
3 7
3 8
3 9
3 10
3 11
3 13
3 14
3 18
3 19
3 20
3 21
3 22
3 25
3 26
3 27
3 29
3 30
3 36
3 37
4 5
4 6
4 9
4 10
4 11
4 17
4 19
4 20
4 24
4 28
4 29
4 30
4 31
4 32
4 33
4 35
4 36
4 37
4 38
5 7
5 8
5 9
5 10
5 14
5 15
5 16
5 18
5 24
5 25
5 26
5 27
5 28
5 29
5 30
5 31
5 32
5 33
5 39
6 9
6 11
6 13
6 14
6 15
6 16
6 18
6 25
6 26
6 27
6 28
6 30
6 32
6 33
6 35
6 37
6 39
7 9
7 11
7 13
7 14
7 16
7 17
7 18
7 19
7 20
7 21
7 28
7 30
7 32
7 33
7 35
7 36
7 37
7 38
7 39
8 9
8 11
8 15
8 17
8 19
8 20
8 22
8 25
8 26
8 27
8 28
8 30
8 32
8 33
8 35
8 36
8 37
8 38
9 11
9 13
9 14
9 15
9 16
9 17
9 21
9 22
9 24
9 25
9 31
9 32
9 33
9 35
9 36
9 38
9 39
10 11
10 13
10 14
10 15
10 16
10 17
10 18
10 20
10 21
10 22
10 25
10 26
10 30
10 32
10 33
10 35
10 36
10 37
10 38
10 39
11 15
11 16
11 17
11 18
11 19
11 20
11 21
11 22
11 24
11 26
11 27
11 28
11 29
11 31
11 38
11 39
12 2
12 4
12 6
12 7
12 8
12 9
12 10
12 14
12 15
12 16
12 17
12 18
12 19
12 20
12 21
12 22
12 23
12 25
12 26
12 27
12 29
12 30
12 31
12 33
12 34
12 36
12 44
13 15
13 17
13 19
13 20
13 22
13 24
13 25
13 26
13 27
13 28
13 29
13 30
13 31
13 32
13 33
13 36
13 38
14 15
14 17
14 19
14 20
14 22
14 24
14 26
14 27
14 28
14 29
14 31
14 35
14 37
14 38
15 18
15 19
15 20
15 21
15 24
15 28
15 29
15 30
15 32
15 36
15 37
15 38
15 39
16 19
16 20
16 22
16 24
16 25
16 26
16 27
16 28
16 29
16 30
16 32
16 36
16 37
16 38
17 18
17 24
17 25
17 26
17 27
17 28
17 29
17 30
17 32
17 37
17 39
18 19
18 22
18 24
18 25
18 27
18 28
18 31
18 32
18 33
18 35
18 36
18 38
19 24
19 25
19 26
19 29
19 30
19 31
19 32
19 33
19 35
19 37
19 39
20 24
20 25
20 27
20 28
20 31
20 32
20 33
20 35
20 39
21 24
21 25
21 26
21 27
21 28
21 29
21 30
21 31
21 32
21 33
21 35
21 37
22 24
22 28
22 29
22 30
22 31
22 32
22 33
22 35
22 37
22 39
23 2
23 3
23 4
23 5
23 9
23 13
23 15
23 16
23 17
23 18
23 19
23 20
23 21
23 22
23 26
23 27
23 28
23 35
23 37
23 38
23 39
23 41
23 42
23 43
23 44
24 25
24 26
24 27
24 30
24 33
24 35
24 36
24 37
25 28
25 29
25 31
25 35
25 37
25 38
25 39
26 28
26 31
26 32
26 33
26 35
26 36
26 38
26 39
27 29
27 30
27 31
27 32
27 33
27 35
27 36
27 37
27 38
27 39
28 29
28 30
28 31
28 33
28 35
28 36
28 37
29 32
29 33
29 35
29 36
29 38
29 39
30 31
30 35
30 38
30 39
31 32
31 36
31 37
31 38
31 39
32 35
32 37
33 37
33 38
33 39
34 3
34 4
34 5
34 6
34 7
34 8
34 13
34 15
34 16
34 17
34 18
34 20
34 21
34 22
34 24
34 26
34 29
34 31
34 35
34 37
34 38
34 39
34 40
34 41
34 43
34 44
35 36
35 38
35 39
36 37
36 39
37 38
37 39
40 2
40 3
40 4
40 9
40 14
40 15
40 16
40 17
40 18
40 19
40 20
40 21
40 22
40 25
40 26
40 27
40 28
40 30
40 32
40 33
40 36
40 38
40 39
40 43
40 44
41 2
41 3
41 6
41 8
41 9
41 10
41 14
41 16
41 17
41 18
41 19
41 20
41 21
41 24
41 28
41 29
41 30
41 31
41 32
41 33
41 36
41 38
41 39
41 44
42 3
42 4
42 6
42 7
42 8
42 14
42 15
42 16
42 17
42 18
42 20
42 21
42 22
42 24
42 25
42 26
42 29
42 30
42 31
42 32
42 33
42 36
42 38
42 39
42 43
42 44
43 2
43 5
43 6
43 8
43 9
43 10
43 11
43 13
43 14
43 16
43 17
43 18
43 19
43 20
43 21
43 29
43 30
43 31
43 33
43 35
43 36
43 37
43 44
44 4
44 5
44 6
44 7
44 8
44 10
44 11
44 13
44 14
44 19
44 21
44 22
44 24
44 25
44 27
44 28
44 32
44 36
44 38
44 39
